NAME : d198
COMMENT : Drilling
TYPE : TOUR
DIMENSION : 198
TOUR_LENGTH : 16024
ERROR : 0.0154626
TOUR_SECTION
170
171
165
164
163
162
150
136
128
127
126
169
125
124
168
123
137
139
133
131
130
129
132
134
135
140
142
141
146
145
144
143
149
148
147
152
151
161
160
159
158
157
156
155
154
153
138
122
119
118
117
120
121
114
115
116
111
112
113
104
103
102
101
92
100
93
94
95
80
77
63
76
75
64
51
45
52
61
74
81
88
89
96
97
87
82
73
65
60
53
44
36
35
31
30
37
43
54
59
66
69
72
67
58
55
42
41
56
57
68
70
84
71
83
86
98
99
85
12
11
10
9
8
7
4
3
2
5
6
1
0
39
40
13
14
15
16
17
18
19
20
23
24
25
26
21
22
28
27
29
32
33
34
38
46
50
49
47
48
62
78
79
90
91
105
106
110
109
108
107
166
167
181
175
172
173
174
176
180
182
177
179
183
184
178
193
194
197
196
195
185
192
191
186
190
187
188
189
-1
EOF
